p cnf 811
-14 -252
-15 -255
-16 -258
-17 -261
-18 -264
-19 -267
-20 -270
-21 -273
-22 -276
-23 -279
-24 -282
-25 -285
-26 -288
-27 289
-28 290
-29 291
-30 292
-31 293
-32 -15
-32 -16
15 16 32
-33 -17
-33 -18
17 18 33
-34 -19
-34 -20
19 20 34
-35 -21
-35 -22
21 22 35
-36 -23
-36 -24
23 24 36
-37 -25
-37 -26
25 26 37
-38 -27
-38 -28
27 28 38
-39 -29
-39 -30
29 30 39
-40 32
-40 33
-32 -33 40
-41 34
-41 35
-34 -35 41
-42 36
-42 37
-36 -37 42
-43 38
-43 39
-38 -39 43
-44 40
-44 41
-40 -41 44
-45 42
-45 43
-42 -43 45
-46 44
-46 45
-44 -45 46
-47 -31
-47 46
31 -46 47
-48 -14
-48 15
14 -15 48
-49 14
-49 -15
-14 15 49
-50 -48
-50 -49
48 49 50
-51 14
-51 15
-14 -15 51
-52 -14
-52 -50
14 50 52
-53 14
-53 50
-14 -50 53
-54 -52
-54 -53
52 53 54
-55 14
-55 -50
-14 50 55
-56 -51
-56 -55
51 55 56
-57 -15
-57 16
15 -16 57
-58 15
-58 -16
-15 16 58
-59 -57
-59 -58
57 58 59
-60 15
-60 16
-15 -16 60
-61 56
-61 -59
-56 59 61
-62 -56
-62 59
56 -59 62
-63 -61
-63 -62
61 62 63
-64 -56
-64 -59
56 59 64
-65 -60
-65 -64
60 64 65
-66 -16
-66 17
16 -17 66
-67 16
-67 -17
-16 17 67
-68 -66
-68 -67
66 67 68
-69 16
-69 17
-16 -17 69
-70 65
-70 -68
-65 68 70
-71 -65
-71 68
65 -68 71
-72 -70
-72 -71
70 71 72
-73 -65
-73 -68
65 68 73
-74 -69
-74 -73
69 73 74
-75 -17
-75 18
17 -18 75
-76 17
-76 -18
-17 18 76
-77 -75
-77 -76
75 76 77
-78 17
-78 18
-17 -18 78
-79 74
-79 -77
-74 77 79
-80 -74
-80 77
74 -77 80
-81 -79
-81 -80
79 80 81
-82 -74
-82 -77
74 77 82
-83 -78
-83 -82
78 82 83
-84 -18
-84 19
18 -19 84
-85 18
-85 -19
-18 19 85
-86 -84
-86 -85
84 85 86
-87 18
-87 19
-18 -19 87
-88 83
-88 -86
-83 86 88
-89 -83
-89 86
83 -86 89
-90 -88
-90 -89
88 89 90
-91 -83
-91 -86
83 86 91
-92 -87
-92 -91
87 91 92
-93 -19
-93 20
19 -20 93
-94 19
-94 -20
-19 20 94
-95 -93
-95 -94
93 94 95
-96 19
-96 20
-19 -20 96
-97 92
-97 -95
-92 95 97
-98 -92
-98 95
92 -95 98
-99 -97
-99 -98
97 98 99
-100 -92
-100 -95
92 95 100
-101 -96
-101 -100
96 100 101
-102 -20
-102 21
20 -21 102
-103 20
-103 -21
-20 21 103
-104 -102
-104 -103
102 103 104
-105 20
-105 21
-20 -21 105
-106 101
-106 -104
-101 104 106
-107 -101
-107 104
101 -104 107
-108 -106
-108 -107
106 107 108
-109 -101
-109 -104
101 104 109
-110 -105
-110 -109
105 109 110
-111 -21
-111 22
21 -22 111
-112 21
-112 -22
-21 22 112
-113 -111
-113 -112
111 112 113
-114 21
-114 22
-21 -22 114
-115 110
-115 -113
-110 113 115
-116 -110
-116 113
110 -113 116
-117 -115
-117 -116
115 116 117
-118 -110
-118 -113
110 113 118
-119 -114
-119 -118
114 118 119
-120 -22
-120 23
22 -23 120
-121 22
-121 -23
-22 23 121
-122 -120
-122 -121
120 121 122
-123 22
-123 23
-22 -23 123
-124 119
-124 -122
-119 122 124
-125 -119
-125 122
119 -122 125
-126 -124
-126 -125
124 125 126
-127 -119
-127 -122
119 122 127
-128 -123
-128 -127
123 127 128
-129 -23
-129 24
23 -24 129
-130 23
-130 -24
-23 24 130
-131 -129
-131 -130
129 130 131
-132 23
-132 24
-23 -24 132
-133 128
-133 -131
-128 131 133
-134 -128
-134 131
128 -131 134
-135 -133
-135 -134
133 134 135
-136 -128
-136 -131
128 131 136
-137 -132
-137 -136
132 136 137
-138 -24
-138 25
24 -25 138
-139 24
-139 -25
-24 25 139
-140 -138
-140 -139
138 139 140
-141 24
-141 25
-24 -25 141
-142 137
-142 -140
-137 140 142
-143 -137
-143 140
137 -140 143
-144 -142
-144 -143
142 143 144
-145 -137
-145 -140
137 140 145
-146 -141
-146 -145
141 145 146
-147 -25
-147 26
25 -26 147
-148 25
-148 -26
-25 26 148
-149 -147
-149 -148
147 148 149
-150 25
-150 26
-25 -26 150
-151 146
-151 -149
-146 149 151
-152 -146
-152 149
146 -149 152
-153 -151
-153 -152
151 152 153
-154 -146
-154 -149
146 149 154
-155 -150
-155 -154
150 154 155
-156 -26
-156 27
26 -27 156
-157 26
-157 -27
-26 27 157
-158 -156
-158 -157
156 157 158
-159 26
-159 27
-26 -27 159
-160 155
-160 -158
-155 158 160
-161 -155
-161 158
155 -158 161
-162 -160
-162 -161
160 161 162
-163 -155
-163 -158
155 158 163
-164 -159
-164 -163
159 163 164
-165 -27
-165 28
27 -28 165
-166 27
-166 -28
-27 28 166
-167 -165
-167 -166
165 166 167
-168 27
-168 28
-27 -28 168
-169 164
-169 -167
-164 167 169
-170 -164
-170 167
164 -167 170
-171 -169
-171 -170
169 170 171
-172 -164
-172 -167
164 167 172
-173 -168
-173 -172
168 172 173
-174 -28
-174 29
28 -29 174
-175 28
-175 -29
-28 29 175
-176 -174
-176 -175
174 175 176
-177 28
-177 29
-28 -29 177
-178 173
-178 -176
-173 176 178
-179 -173
-179 176
173 -176 179
-180 -178
-180 -179
178 179 180
-181 -173
-181 -176
173 176 181
-182 -177
-182 -181
177 181 182
-183 -29
-183 30
29 -30 183
-184 29
-184 -30
-29 30 184
-185 -183
-185 -184
183 184 185
-186 29
-186 30
-29 -30 186
-187 182
-187 -185
-182 185 187
-188 -182
-188 185
182 -185 188
-189 -187
-189 -188
187 188 189
-190 -182
-190 -185
182 185 190
-191 -186
-191 -190
186 190 191
-192 -30
-192 31
30 -31 192
-193 30
-193 -31
-30 31 193
-194 -192
-194 -193
192 193 194
-195 30
-195 31
-30 -31 195
-196 191
-196 -194
-191 194 196
-197 -191
-197 194
191 -194 197
-198 -196
-198 -197
196 197 198
-199 -191
-199 -194
191 194 199
-200 -195
-200 -199
195 199 200
-201 14
-201 -54
-14 54 201
-202 -14
-202 16
14 -16 202
-203 -201
-203 -202
201 202 203
-204 14
-204 -63
-14 63 204
-205 -14
-205 17
14 -17 205
-206 -204
-206 -205
204 205 206
-207 14
-207 -72
-14 72 207
-208 -14
-208 18
14 -18 208
-209 -207
-209 -208
207 208 209
-210 14
-210 -81
-14 81 210
-211 -14
-211 19
14 -19 211
-212 -210
-212 -211
210 211 212
-213 14
-213 -90
-14 90 213
-214 -14
-214 20
14 -20 214
-215 -213
-215 -214
213 214 215
-216 14
-216 -99
-14 99 216
-217 -14
-217 21
14 -21 217
-218 -216
-218 -217
216 217 218
-219 14
-219 -108
-14 108 219
-220 -14
-220 22
14 -22 220
-221 -219
-221 -220
219 220 221
-222 14
-222 -117
-14 117 222
-223 -14
-223 23
14 -23 223
-224 -222
-224 -223
222 223 224
-225 14
-225 -126
-14 126 225
-226 -14
-226 24
14 -24 226
-227 -225
-227 -226
225 226 227
-228 14
-228 -135
-14 135 228
-229 -14
-229 25
14 -25 229
-230 -228
-230 -229
228 229 230
-231 14
-231 -144
-14 144 231
-232 -14
-232 26
14 -26 232
-233 -231
-233 -232
231 232 233
-234 14
-234 -153
-14 153 234
-235 -14
-235 27
14 -27 235
-236 -234
-236 -235
234 235 236
-237 14
-237 -162
-14 162 237
-238 -14
-238 28
14 -28 238
-239 -237
-239 -238
237 238 239
-240 14
-240 -171
-14 171 240
-241 -14
-241 29
14 -29 241
-242 -240
-242 -241
240 241 242
-243 14
-243 -180
-14 180 243
-244 -14
-244 30
14 -30 244
-245 -243
-245 -244
243 244 245
-246 14
-246 -189
-14 189 246
-247 -14
-247 31
14 -31 247
-248 -246
-248 -247
246 247 248
-249 14
-249 -198
-14 198 249
-250 1
-250 47
-1 -47 250
-251 -47
-251 48
47 -48 251
-252 -250
-252 -251
250 251 252
-253 2
-253 47
-2 -47 253
-254 -47
-254 -203
47 203 254
-255 -253
-255 -254
253 254 255
-256 3
-256 47
-3 -47 256
-257 -47
-257 -206
47 206 257
-258 -256
-258 -257
256 257 258
-259 4
-259 47
-4 -47 259
-260 -47
-260 -209
47 209 260
-261 -259
-261 -260
259 260 261
-262 5
-262 47
-5 -47 262
-263 -47
-263 -212
47 212 263
-264 -262
-264 -263
262 263 264
-265 6
-265 47
-6 -47 265
-266 -47
-266 -215
47 215 266
-267 -265
-267 -266
265 266 267
-268 7
-268 47
-7 -47 268
-269 -47
-269 -218
47 218 269
-270 -268
-270 -269
268 269 270
-271 8
-271 47
-8 -47 271
-272 -47
-272 -221
47 221 272
-273 -271
-273 -272
271 272 273
-274 9
-274 47
-9 -47 274
-275 -47
-275 -224
47 224 275
-276 -274
-276 -275
274 275 276
-277 10
-277 47
-10 -47 277
-278 -47
-278 -227
47 227 278
-279 -277
-279 -278
277 278 279
-280 11
-280 47
-11 -47 280
-281 -47
-281 -230
47 230 281
-282 -280
-282 -281
280 281 282
-283 12
-283 47
-12 -47 283
-284 -47
-284 -233
47 233 284
-285 -283
-285 -284
283 284 285
-286 13
-286 47
-13 -47 286
-287 -47
-287 -236
47 236 287
-288 -286
-288 -287
286 287 288
-289 -47
-289 -239
47 239 289
-290 -47
-290 -242
47 242 290
-291 -47
-291 -245
47 245 291
-292 -47
-292 -248
47 248 292
-293 -47
-293 249
47 -249 293
-294 -31
-294 200
31 -200 294
-295 14
-295 -294
-14 294 295
295
